job_count = 24 ;
duration = [|18, 6, 4|6, 8, 4|12, 15, 1|25, 11, 1|23, 12, 5|4, 13, 9|3, 12, 3|27, 19, 1|9, 17, 6|18, 14, 6|7, 2, 5|24, 14, 8|4, 5, 5|18, 10, 3|27, 3, 9|17, 16, 6|22, 3, 5|20, 14, 4|17, 4, 1|27, 19, 9|23, 2, 3|18, 18, 9|15, 10, 2|7, 3, 4|] ;
machine_count = 3 ;
cost = [|18, 37, 53|13, 34, 55|19, 33, 52|12, 21, 51|15, 25, 57|11, 28, 54|17, 32, 34|16, 27, 58|14, 23, 51|14, 39, 53|15, 21, 46|16, 33, 39|19, 26, 36|18, 20, 43|14, 36, 43|19, 29, 41|13, 35, 33|19, 26, 53|11, 29, 37|11, 26, 46|14, 20, 50|11, 38, 41|17, 33, 40|18, 39, 58|] ;
deadline = [53, 53, 53, 53, 53, 53, 53, 53, 53, 53, 53, 53, 53, 53, 53, 53, 53, 53, 53, 53, 53, 53, 53, 53] ;
release = [0, 0, 0, 0, 0, 0, 0, 0, 0, 0, 0, 0, 0, 0, 0, 0, 0, 0, 0, 0, 0, 0, 0, 0] ;
resource = [|8, 8, 8|6, 6, 6|8, 8, 8|6, 6, 6|4, 4, 4|9, 9, 9|7, 7, 7|6, 6, 6|7, 7, 7|2, 2, 2|6, 6, 6|3, 3, 3|2, 2, 2|5, 5, 5|1, 1, 1|6, 6, 6|8, 8, 8|8, 8, 8|9, 9, 9|5, 5, 5|8, 8, 8|7, 7, 7|9, 9, 9|9, 9, 9|] ;
capacities = [10, 10, 10] ;
